(set-info :smt-lib-version 2.6)
(set-logic QF_LIA)
(set-info :category "industrial")
(set-info :status sat)
(declare-fun x0 () Int)
(declare-fun x1 () Int)
(declare-fun x10 () Int)
(declare-fun x11 () Int)
(declare-fun x12 () Int)
(declare-fun x13 () Int)
(declare-fun x14 () Int)
(declare-fun x15 () Int)
(declare-fun x16 () Int)
(declare-fun x17 () Int)
(declare-fun x18 () Int)
(declare-fun x19 () Int)
(declare-fun x2 () Int)
(declare-fun x20 () Int)
(declare-fun x21 () Int)
(declare-fun x22 () Int)
(declare-fun x23 () Int)
(declare-fun x24 () Int)
(declare-fun x25 () Int)
(declare-fun x26 () Int)
(declare-fun x27 () Int)
(declare-fun x28 () Int)
(declare-fun x29 () Int)
(declare-fun x3 () Int)
(declare-fun x30 () Int)
(declare-fun x31 () Int)
(declare-fun x32 () Int)
(declare-fun x33 () Int)
(declare-fun x34 () Int)
(declare-fun x35 () Int)
(declare-fun x36 () Int)
(declare-fun x37 () Int)
(declare-fun x38 () Int)
(declare-fun x39 () Int)
(declare-fun x4 () Int)
(declare-fun x40 () Int)
(declare-fun x41 () Int)
(declare-fun x42 () Int)
(declare-fun x43 () Int)
(declare-fun x44 () Int)
(declare-fun x5 () Int)
(declare-fun x6 () Int)
(declare-fun x7 () Int)
(declare-fun x8 () Int)
(declare-fun x9 () Int)
(assert (let ((?v_4 (* 0 x2)) (?v_16 (* 1 x17)) (?v_37 (* 0 x18)) (?v_0 (* 0 x20)) (?v_17 (* 1 x19)) (?v_41 (* 0 x21)) (?v_60 (* 0 x23)) (?v_30 (* 0 x40)) (?v_140 (* 1 x30)) (?v_7 (* 1 x37)) (?v_53 (* 1 x38)) (?v_8 (* 1 x39)) (?v_1 (* 0 x4)) (?v_54 (* 0 x41)) (?v_81 (* 0 x6)) (?v_21 (* 0 x9)) (?v_45 (* 1 x24)) (?v_141 (* 1 x28)) (?v_105 (* 1 x33)) (?v_20 (* 1 x36)) (?v_55 (* 1 x44)) (?v_57 (* 0 x1)) (?v_83 (* 0 x11)) (?v_35 (* 0 x14)) (?v_36 (* 0 x16)) (?v_2 (* 0 x17)) (?v_50 (* 0 x26)) (?v_79 (* 1 x22)) (?v_5 (* 0 x29)) (?v_103 (* 1 x3)) (?v_104 (* 0 x32)) (?v_14 (* 0 x38)) (?v_19 (* 1 x34)) (?v_99 (* 0 x39)) (?v_9 (* 1 x40)) (?v_56 (* 0 x7)) (?v_6 (* 0 x8)) (?v_10 (* 1 x5)) (?v_11 (* 1 x6)) (?v_82 (* 1 x1)) (?v_69 (* 2 x0)) (?v_26 (* 1 x18)) (?v_23 (* 0 x19)) (?v_48 (* 1 x21)) (?v_139 (* 1 x23)) (?v_98 (* 0 x24)) (?v_111 (* 1 x25)) (?v_18 (* 1 x26)) (?v_52 (* 0 x34)) (?v_75 (* 0 x36)) (?v_27 (* 1 x32)) (?v_146 (* 2 x33))) (let ((?v_143 (+ ?v_11 ?v_146)) (?v_25 (* 1 x11)) (?v_63 (* 0 x27)) (?v_108 (* 2 x29)) (?v_66 (* 1 x42)) (?v_33 (* 0 x43)) (?v_34 (* 0 x0)) (?v_102 (* 1 x12)) (?v_92 (* 1 x14)) (?v_42 (* 0 x31)) (?v_126 (* 1 x41)) (?v_68 (* 1 x7)) (?v_96 (* 1 x9)) (?v_47 (* 0 x12)) (?v_65 (* 0 x37)) (?v_67 (* 0 x5)) (?v_130 (* 2 x4)) (?v_91 (* 0 x10)) (?v_119 (* 0 x13)) (?v_112 (* 0 x3)) (?v_116 (* 1 x27)) (?v_64 (* 0 x33)) (?v_74 (* 0 x35)) (?v_101 (* 1 x10)) (?v_84 (* 1 x2)) (?v_97 (* 0 x22)) (?v_80 (* 0 x44)) (?v_106 (* 1 x8)) (?v_100 (* 1 x0)) (?v_94 (* 0 x25)) (?v_93 (* 0 x15)) (?v_85 (* 1 x31)) (?v_95 (* 0 x42)) (?v_128 (* 1 x4)) (?v_113 (* 0 x30)) (?v_114 (* 1 x43)) (?v_127 (* 1 x13)) (?v_121 (* 1 x16)) (?v_123 (* 1 x35)) (?v_122 (* 1 x29))) (let ((?v_117 (+ ?v_21 ?v_114)) (?v_138 (* 1 x20)) (?v_134 (* 0 x28)) (?v_144 (* 1 x15)) (?v_148 (* 2 x38)) (?v_147 (* 2 x31)) (?v_46 (* (- 1) x0)) (?v_22 (* (- 1) x1)) (?v_13 (* (- 1) x35)) (?v_3 (* (- 1) x3)) (?v_31 (* (- 1) x42)) (?v_124 (* (- 1) x12)) (?v_12 (* (- 1) x13)) (?v_38 (* (- 1) x23)) (?v_88 (* (- 1) x41)) (?v_44 (* (- 1) x9)) (?v_70 (* (- 1) x10)) (?v_58 (* (- 1) x11)) (?v_77 (* (- 1) x20)) (?v_15 (* (- 1) x15)) (?v_137 (* (- 2) x2)) (?v_24 (* (- 1) x22)) (?v_28 (* (- 1) x37)) (?v_29 (* (- 1) x39)) (?v_61 (* (- 1) x40)) (?v_32 (* (- 1) x44)) (?v_89 (* (- 1) x16)) (?v_59 (* (- 1) x21)) (?v_49 (* (- 1) x24)) (?v_39 (* (- 1) x25)) (?v_40 (* (- 1) x26)) (?v_72 (* (- 1) x29)) (?v_43 (* (- 1) x33)) (?v_62 (* (- 1) x6)) (?v_51 (* (- 1) x36)) (?v_78 (* (- 1) x7)) (?v_76 (* (- 1) x43)) (?v_135 (* (- 2) x11)) (?v_115 (* (- 2) x37)) (?v_73 (* (- 1) x31)) (?v_71 (* (- 1) x14)) (?v_87 (* (- 1) x38)) (?v_120 (* (- 2) x42)) (?v_86 (* (- 1) x32)) (?v_90 (* (- 1) x19)) (?v_110 (* (- 1) x30)) (?v_109 (* (- 1) x27)) (?v_118 (* (- 1) x4)) (?v_129 (* (- 1) x5)) (?v_142 (* (- 2) x8)) (?v_107 (* (- 1) x34)) (?v_136 (* (- 2) x19)) (?v_131 (* (- 1) x17)) (?v_132 (* (- 1) x18)) (?v_125 (* (- 1) x28)) (?v_133 (* (- 1) x8)) (?v_145 (* (- 2) x5))) (and (<= (+ ?v_46 (+ ?v_22 (+ (* (- 2) x15) (+ ?v_4 (+ ?v_13 (+ ?v_16 (+ ?v_3 (+ ?v_37 (+ ?v_0 (+ ?v_17 (+ ?v_41 (+ ?v_60 (+ ?v_30 (+ ?v_140 (+ ?v_7 (+ ?v_53 (+ ?v_8 (+ ?v_31 (+ ?v_1 (+ ?v_54 (+ ?v_81 (+ ?v_21 (+ ?v_45 (+ ?v_141 (+ ?v_105 (+ ?v_20 ?v_55)))))))))))))))))))))))))) 0) (<= (+ ?v_57 (+ (* 2 x10) (+ ?v_83 (+ ?v_124 (+ ?v_12 (+ ?v_38 (+ ?v_35 (+ ?v_36 (+ ?v_2 (+ ?v_0 (+ ?v_50 (+ ?v_79 (+ ?v_5 (+ ?v_103 (+ ?v_104 (+ ?v_14 (+ ?v_19 (+ ?v_99 (+ ?v_1 (+ ?v_9 (+ ?v_88 (+ ?v_56 (+ ?v_6 (+ ?v_10 (+ ?v_11 ?v_44))))))))))))))))))))))))) (- 1)) (<= (+ ?v_82 (+ ?v_69 (+ (* (- 2) x31) (+ ?v_70 (+ ?v_58 (+ ?v_77 (+ ?v_2 (+ ?v_3 (+ ?v_26 (+ ?v_23 (+ ?v_4 (+ ?v_48 (+ ?v_139 (+ (* (- 2) x9) (+ ?v_15 (+ ?v_98 (+ ?v_111 (+ ?v_18 (+ ?v_5 (+ ?v_52 (+ ?v_75 (+ ?v_6 (+ ?v_27 (+ ?v_7 (+ ?v_8 (+ ?v_9 (+ ?v_10 ?v_143))))))))))))))))))))))))))) (- 1)) (<= (+ ?v_137 (+ ?v_12 (+ (* (- 2) x21) (+ ?v_24 (+ ?v_13 (+ ?v_28 (+ ?v_14 (+ ?v_29 (+ ?v_61 (+ ?v_32 (+ ?v_25 (+ ?v_15 (+ ?v_16 (+ ?v_17 (+ ?v_18 (+ ?v_63 (+ ?v_19 (+ ?v_20 (+ ?v_108 (+ ?v_66 (+ (* 2 x41) (+ ?v_33 ?v_21)))))))))))))))))))))) 0) (<= (+ ?v_22 (+ ?v_89 (+ ?v_34 (+ ?v_23 (+ ?v_59 (+ ?v_24 (+ ?v_25 (+ (* (- 2) x28) (+ ?v_102 (+ ?v_92 (+ ?v_15 (+ ?v_16 (+ ?v_26 (+ ?v_49 (+ ?v_39 (+ ?v_40 (+ ?v_72 (+ ?v_3 (+ ?v_42 (+ ?v_27 (+ ?v_43 (+ ?v_19 (+ (* 2 x35) (+ ?v_28 (+ ?v_29 (+ ?v_30 (+ ?v_31 (+ ?v_32 (+ ?v_1 (+ ?v_62 (+ ?v_126 (+ ?v_33 (+ ?v_68 ?v_96))))))))))))))))))))))))))))))))) (- 1)) (<= (+ ?v_12 (+ ?v_34 (+ (* 2 x11) (+ ?v_47 (+ ?v_35 (+ ?v_15 (+ ?v_36 (+ ?v_2 (+ ?v_37 (+ ?v_0 (+ ?v_17 (+ ?v_24 (+ ?v_38 (+ ?v_39 (+ ?v_40 (+ ?v_41 (+ ?v_42 (+ ?v_43 (+ ?v_51 (+ ?v_65 (+ ?v_30 (+ ?v_78 (+ ?v_67 (+ ?v_44 (+ ?v_45 (+ ?v_130 (+ ?v_76 (* 2 x6)))))))))))))))))))))))))))) (- 1)) (<= (+ ?v_46 (+ ?v_22 (+ ?v_91 (+ ?v_135 (+ (* (- 1) x2) (+ ?v_119 (+ (* (- 2) x20) (+ ?v_115 (+ ?v_24 (+ ?v_38 (+ ?v_47 (+ ?v_35 (+ ?v_23 (+ ?v_48 (+ ?v_49 (+ ?v_50 (+ ?v_112 (+ ?v_73 (+ ?v_51 (+ ?v_116 (+ ?v_64 (+ ?v_52 (+ ?v_74 (+ ?v_53 (+ ?v_30 (+ ?v_54 (+ ?v_33 (+ ?v_55 (+ ?v_56 ?v_11))))))))))))))))))))))))))))) (- 1)) (<= (+ ?v_57 (+ ?v_101 (+ ?v_58 (+ ?v_12 (+ ?v_71 (+ ?v_4 (+ ?v_16 (+ ?v_37 (+ ?v_59 (+ ?v_24 (+ ?v_47 (+ ?v_60 (+ ?v_49 (+ ?v_50 (+ ?v_87 (+ ?v_61 (+ ?v_62 (+ ?v_63 (+ ?v_64 (+ ?v_65 (+ ?v_8 (+ ?v_54 (+ ?v_66 (+ (* (- 2) x43) (+ ?v_67 (+ ?v_6 ?v_68)))))))))))))))))))))))))) 1) (<= (+ ?v_57 (+ ?v_69 (+ (* (- 2) x30) (+ (* (- 2) x34) (+ ?v_120 (+ ?v_70 (+ ?v_71 (+ ?v_84 (+ ?v_0 (+ ?v_26 (+ ?v_59 (+ ?v_97 (+ ?v_49 (+ ?v_39 (+ ?v_50 (+ ?v_72 (+ ?v_73 (+ ?v_86 (+ ?v_63 (+ ?v_74 (+ ?v_75 (+ ?v_65 (+ ?v_30 (+ ?v_76 (+ ?v_80 (+ ?v_62 (+ ?v_67 (+ ?v_56 (+ ?v_106 ?v_21))))))))))))))))))))))))))))) 0) (<= (+ ?v_12 (+ ?v_36 (+ ?v_100 (+ ?v_2 (+ (* (- 2) x18) (+ ?v_90 (+ ?v_4 (+ ?v_77 (+ ?v_60 (+ ?v_94 (+ ?v_50 (+ ?v_110 (+ ?v_52 (+ ?v_74 (+ ?v_78 (+ ?v_25 (+ ?v_43 (+ ?v_93 (+ ?v_79 (+ ?v_5 (+ ?v_85 (+ ?v_53 (+ (* 2 x37) (+ ?v_8 (+ ?v_95 (+ ?v_80 (+ ?v_128 (+ ?v_81 ?v_21)))))))))))))))))))))))))))) 0) (<= (+ ?v_12 (+ ?v_34 (+ ?v_82 (+ ?v_83 (+ ?v_35 (+ (* 2 x16) (+ ?v_2 (+ ?v_37 (+ ?v_84 (+ ?v_60 (+ ?v_18 (+ ?v_109 (+ ?v_5 (+ ?v_113 (+ ?v_85 (+ ?v_86 (+ ?v_74 (+ ?v_87 (+ ?v_75 (+ ?v_65 (+ ?v_118 (+ ?v_9 (+ ?v_88 (+ ?v_31 (+ ?v_129 (+ ?v_62 (+ ?v_47 (+ ?v_6 ?v_114)))))))))))))))))))))))))))) (- 1)) (<= (+ ?v_57 (+ ?v_127 (+ ?v_89 (+ ?v_40 (+ (* (- 2) x3) (+ ?v_90 (+ ?v_51 (+ ?v_28 (+ ?v_32 (+ ?v_78 (+ ?v_91 (+ ?v_47 (+ ?v_92 (+ ?v_93 (+ ?v_2 (+ ?v_37 (+ ?v_4 (+ ?v_41 (+ ?v_94 (+ ?v_63 (+ ?v_64 (+ ?v_14 (+ ?v_8 (+ ?v_1 (+ ?v_30 (+ ?v_54 (+ ?v_95 (+ ?v_67 ?v_96)))))))))))))))))))))))))))) 1) (<= (+ ?v_57 (+ ?v_142 (+ ?v_58 (+ ?v_40 (+ ?v_121 (+ ?v_84 (+ ?v_107 (+ ?v_87 (+ ?v_32 (+ ?v_37 (+ ?v_17 (+ ?v_97 (+ ?v_60 (+ ?v_72 (+ ?v_88 (+ ?v_31 (+ ?v_93 (+ ?v_98 (+ ?v_63 (+ ?v_64 (+ ?v_74 (+ ?v_7 (+ ?v_99 (+ (* 2 x40) (+ ?v_33 (+ ?v_81 ?v_68)))))))))))))))))))))))))) (- 1)) (<= (+ ?v_12 (+ ?v_4 (+ ?v_38 (+ ?v_100 (+ ?v_2 (+ ?v_73 (+ (* (- 2) x7) (+ ?v_97 (+ ?v_51 (+ ?v_101 (+ ?v_88 (+ ?v_102 (+ ?v_93 (+ ?v_17 (+ ?v_48 (+ ?v_98 (+ ?v_103 (+ ?v_104 (+ ?v_99 (+ ?v_105 (+ ?v_19 (+ ?v_123 (+ ?v_66 (+ ?v_33 (+ ?v_11 (+ ?v_106 ?v_96)))))))))))))))))))))))))) 0) (<= (+ ?v_34 (+ (* 2 x1) (+ ?v_71 (+ ?v_77 (+ ?v_59 (+ ?v_107 (+ ?v_91 (+ ?v_83 (+ ?v_17 (+ ?v_97 (+ ?v_50 (+ ?v_42 (+ ?v_53 (+ ?v_9 (+ ?v_68 (+ ?v_108 (+ ?v_86 (+ (* 2 x44) (+ ?v_44 (+ ?v_102 (+ ?v_93 (+ ?v_63 (+ ?v_1 ?v_33))))))))))))))))))))))) 1) (<= (+ ?v_22 (+ ?v_34 (+ ?v_136 (+ ?v_91 (+ ?v_41 (+ ?v_97 (+ ?v_60 (+ ?v_25 (+ ?v_109 (+ ?v_110 (+ ?v_93 (+ ?v_98 (+ ?v_111 (+ ?v_5 (+ ?v_112 (+ ?v_104 (+ ?v_52 (+ ?v_74 (+ ?v_75 (+ ?v_14 (+ ?v_1 (+ ?v_54 (+ ?v_95 (+ ?v_105 (+ ?v_33 (+ ?v_80 (+ ?v_56 (+ ?v_10 ?v_21)))))))))))))))))))))))))))) (- 1)) (<= (+ ?v_57 (+ ?v_100 (+ (* (- 2) x40) (+ ?v_71 (+ ?v_131 (+ ?v_132 (+ ?v_28 (+ ?v_29 (+ ?v_83 (+ ?v_36 (+ ?v_0 (+ ?v_41 (+ ?v_60 (+ ?v_109 (+ ?v_102 (+ ?v_93 (+ ?v_98 (+ ?v_111 (+ ?v_103 (+ ?v_113 (+ ?v_42 (+ ?v_74 (+ ?v_75 (+ ?v_122 (+ ?v_1 (+ ?v_27 (+ ?v_54 (+ ?v_67 (+ ?v_81 (+ ?v_6 (+ ?v_68 ?v_117))))))))))))))))))))))))))))))) 0) (<= (+ ?v_46 (+ ?v_59 (+ ?v_91 (+ ?v_92 (+ (* (- 2) x32) (+ ?v_115 (+ ?v_125 (+ ?v_93 (+ ?v_36 (+ ?v_0 (+ ?v_16 (+ (* 2 x25) (+ ?v_112 (+ ?v_113 (+ ?v_42 (+ ?v_52 (+ ?v_53 (+ ?v_99 (+ ?v_9 (+ ?v_80 (+ ?v_67 (+ ?v_116 (+ ?v_106 ?v_117))))))))))))))))))))))) 0) (<= (+ ?v_38 (+ (* (- 2) x38) (+ ?v_34 (+ ?v_90 (+ ?v_3 (+ ?v_118 (+ ?v_91 (+ ?v_83 (+ ?v_119 (+ (* (- 2) x41) (+ ?v_120 (+ ?v_32 (+ ?v_47 (+ ?v_93 (+ ?v_0 (+ ?v_121 (+ ?v_41 (+ ?v_94 (+ ?v_18 (+ ?v_113 (+ ?v_42 (+ ?v_75 (+ ?v_30 (+ ?v_56 (+ ?v_122 (+ ?v_123 (+ ?v_8 (+ ?v_81 ?v_117)))))))))))))))))))))))))))) 1) (<= (+ ?v_57 (+ (* (- 2) x14) (+ ?v_83 (+ ?v_124 (+ ?v_119 (+ ?v_39 (+ ?v_125 (+ ?v_133 (+ ?v_93 (+ ?v_121 (+ ?v_37 (+ ?v_17 (+ ?v_79 (+ (* 2 x21) (+ ?v_98 (+ ?v_112 (+ ?v_113 (+ ?v_52 (+ ?v_65 (+ ?v_14 (+ ?v_30 (+ ?v_80 (+ ?v_85 (+ ?v_8 (+ ?v_95 (+ ?v_67 (+ ?v_126 ?v_11))))))))))))))))))))))))))) (- 1)) (<= (+ ?v_22 (+ ?v_34 (+ ?v_70 (+ ?v_127 (+ ?v_71 (+ ?v_4 (+ ?v_16 (+ ?v_61 (+ ?v_26 (+ ?v_17 (+ ?v_72 (+ ?v_31 (+ ?v_78 (+ ?v_47 (+ ?v_98 (+ ?v_50 (+ ?v_52 (+ ?v_123 (+ ?v_75 (+ ?v_65 (+ ?v_14 (+ ?v_8 (+ ?v_128 (+ (* 2 x27) (+ ?v_33 (+ ?v_81 ?v_10)))))))))))))))))))))))))) 0) (<= (+ ?v_57 (+ ?v_100 (+ ?v_70 (+ ?v_58 (+ ?v_124 (+ ?v_35 (+ ?v_36 (+ (* 2 x2) (+ ?v_138 (+ ?v_41 (+ ?v_50 (+ ?v_109 (+ ?v_110 (+ ?v_5 (+ ?v_42 (+ ?v_65 (+ ?v_20 (+ ?v_1 (+ ?v_88 (+ ?v_32 (+ ?v_129 (+ ?v_78 (+ ?v_44 (+ ?v_98 (+ ?v_134 (+ ?v_66 (+ ?v_81 (+ ?v_114 (* 3 x8))))))))))))))))))))))))))))) 0) (<= (+ ?v_12 (+ (* (- 2) x27) (+ ?v_3 (+ ?v_47 (+ ?v_37 (+ ?v_60 (+ ?v_92 (+ ?v_16 (+ ?v_17 (+ ?v_98 (+ ?v_111 (+ ?v_113 (+ ?v_52 (+ ?v_85 (+ ?v_99 (+ ?v_27 (+ ?v_123 (+ ?v_7 (+ ?v_53 (+ ?v_130 (+ ?v_76 (+ ?v_81 (+ ?v_10 (+ ?v_68 (* 2 x8))))))))))))))))))))))))) 0) (<= (+ ?v_22 (+ (* (- 2) x16) (+ ?v_91 (+ ?v_58 (+ ?v_131 (+ ?v_132 (+ ?v_40 (+ ?v_0 (+ ?v_60 (+ ?v_94 (+ ?v_28 (+ ?v_62 (+ ?v_78 (+ ?v_133 (+ ?v_134 (+ ?v_5 (+ ?v_113 (+ ?v_42 (+ ?v_88 (+ ?v_95 (+ ?v_102 (+ ?v_127 (+ ?v_116 (+ ?v_64 (+ ?v_123 (+ ?v_53 (+ ?v_8 (+ ?v_33 ?v_67)))))))))))))))))))))))))))) 1) (<= (+ ?v_34 (+ ?v_57 (+ ?v_135 (+ ?v_127 (+ ?v_121 (+ ?v_136 (+ ?v_137 (+ ?v_138 (+ (* (- 2) x22) (+ ?v_59 (+ ?v_107 (+ ?v_13 (+ ?v_29 (+ ?v_118 (+ ?v_32 (+ ?v_133 (+ ?v_134 (+ ?v_5 (+ ?v_112 (+ ?v_102 (+ ?v_64 (+ ?v_20 (+ ?v_54 (+ ?v_56 (+ ?v_11 (+ ?v_21 ?v_144)))))))))))))))))))))))))) (- 1)) (<= (+ ?v_46 (+ ?v_22 (+ ?v_115 (+ ?v_70 (+ ?v_119 (+ ?v_89 (+ ?v_131 (+ ?v_13 (+ ?v_23 (+ ?v_97 (+ ?v_112 (+ ?v_52 (+ ?v_14 (+ ?v_25 (+ ?v_92 (+ ?v_48 (+ ?v_139 (+ ?v_125 (+ ?v_51 (+ ?v_29 (+ ?v_5 (+ ?v_31 (+ ?v_32 (+ ?v_62 (+ ?v_104 (+ ?v_1 (+ ?v_56 (+ ?v_44 (+ ?v_102 (+ ?v_64 ?v_45)))))))))))))))))))))))))))))) 1) (<= (+ ?v_90 (+ ?v_59 (+ ?v_24 (+ ?v_72 (+ ?v_101 (+ ?v_83 (+ ?v_124 (+ ?v_37 (+ ?v_92 (+ ?v_140 (+ ?v_129 (+ ?v_62 (+ ?v_44 (+ ?v_98 (+ ?v_63 (+ ?v_141 (+ ?v_27 (+ ?v_64 (+ ?v_75 (+ ?v_56 (+ ?v_128 (+ ?v_126 (+ ?v_66 (+ (* 2 x15) ?v_114)))))))))))))))))))))))) 1) (<= (+ ?v_34 (+ ?v_119 (+ ?v_36 (+ ?v_131 (+ ?v_4 (+ ?v_0 (+ ?v_17 (+ ?v_59 (+ ?v_24 (+ ?v_29 (+ ?v_91 (+ ?v_94 (+ ?v_145 (+ ?v_109 (+ ?v_133 (+ ?v_134 (+ ?v_112 (+ ?v_42 (+ ?v_140 (+ ?v_104 (+ ?v_52 (+ ?v_14 (+ ?v_9 (+ ?v_80 (+ ?v_7 (+ ?v_126 (+ ?v_68 (+ (* 2 x24) ?v_33)))))))))))))))))))))))))))) 0) (<= (+ ?v_57 (+ ?v_4 (+ ?v_127 (+ ?v_77 (+ ?v_38 (+ ?v_142 (+ ?v_72 (+ ?v_107 (+ ?v_35 (+ ?v_121 (+ ?v_2 (+ ?v_23 (+ ?v_41 (+ ?v_97 (+ ?v_111 (+ (* 3 x26) (+ ?v_103 (+ ?v_31 (+ ?v_78 (+ ?v_134 (+ ?v_104 (+ ?v_75 (+ ?v_30 (+ ?v_102 (+ ?v_116 (+ ?v_64 (+ ?v_53 ?v_8))))))))))))))))))))))))))) 1) (<= (+ ?v_38 (+ ?v_34 (+ ?v_2 (+ ?v_0 (+ ?v_25 (+ ?v_86 (+ ?v_32 (+ ?v_129 (+ ?v_78 (+ ?v_134 (+ ?v_112 (+ ?v_74 (+ ?v_54 (+ ?v_95 (+ ?v_102 (+ ?v_17 (+ ?v_84 (+ ?v_48 (+ ?v_111 (+ (* 2 x14) (+ ?v_116 (+ ?v_85 (+ ?v_20 (+ ?v_7 (+ ?v_148 ?v_143))))))))))))))))))))))))) (- 1)) (<= (+ ?v_13 (+ ?v_34 (+ ?v_57 (+ ?v_115 (+ (* (- 2) x44) (+ ?v_37 (+ ?v_0 (+ ?v_59 (+ ?v_97 (+ (* (- 2) x36) (+ ?v_63 (+ ?v_5 (+ ?v_112 (+ ?v_113 (+ ?v_14 (+ ?v_54 (+ ?v_81 (+ ?v_6 (+ ?v_21 (+ ?v_102 (+ ?v_144 (+ ?v_16 (+ ?v_45 (+ ?v_9 (+ ?v_66 ?v_33))))))))))))))))))))))))) 0) (<= (+ ?v_25 (+ ?v_145 (+ ?v_124 (+ ?v_77 (+ ?v_59 (+ ?v_51 (+ ?v_61 (+ ?v_32 (+ ?v_35 (+ ?v_60 (+ ?v_121 (+ ?v_111 (+ ?v_112 (+ ?v_65 (+ ?v_26 (+ ?v_140 (+ ?v_147 (+ ?v_104 (+ ?v_53 (+ ?v_8 (+ ?v_95 (+ ?v_56 (+ ?v_6 (+ ?v_21 (+ ?v_144 (+ ?v_116 (+ ?v_126 ?v_33))))))))))))))))))))))))))) (- 1)) (<= (+ ?v_82 (+ ?v_127 (+ ?v_142 (+ ?v_71 (+ ?v_2 (+ ?v_4 (+ ?v_3 (+ ?v_110 (+ ?v_107 (+ ?v_28 (+ ?v_87 (+ ?v_32 (+ ?v_48 (+ ?v_18 (+ ?v_86 (+ ?v_129 (+ ?v_62 (+ ?v_134 (+ ?v_75 (+ ?v_30 (+ ?v_144 (+ ?v_85 (+ ?v_66 (+ ?v_146 (+ ?v_114 (* 3 x9)))))))))))))))))))))))))) 0) (<= (+ ?v_82 (+ ?v_12 (+ ?v_132 (+ ?v_77 (+ ?v_24 (+ ?v_3 (+ ?v_28 (+ ?v_29 (+ ?v_101 (+ ?v_83 (+ ?v_35 (+ ?v_23 (+ ?v_48 (+ ?v_111 (+ ?v_125 (+ ?v_86 (+ ?v_98 (+ ?v_63 (+ ?v_74 (+ ?v_54 (+ ?v_80 (+ ?v_67 (+ ?v_81 (+ ?v_56 (+ ?v_144 (+ ?v_140 (+ ?v_147 (+ ?v_105 (+ ?v_148 ?v_76))))))))))))))))))))))))))))) 1))))))
(check-sat)
(exit)
